(set-logic QF_S)
(declare-const x String)
(declare-const y String)
(assert (str.in.re x (re.* (str.to.re "'\x0c';"))))
(assert (str.in.re x (re.* (str.to.re "'\x0c';'\x0c';"))))
(assert (str.in.re x (re.* (str.to.re "x;'\x0c';'\x0c';"))))
(check-sat)
